<?xml version = "1.0" standalone="yes"?>
<!-- This file has been generated by DOcplex version 2.23.222  -->
<CPLEXSolution version="1.0">
 <header
   problemName="CVRP"
   objectiveValue="14077.1"
  />
 <variables>
  <variable name="x_0_1" index="0" value="1.00000"/>
  <variable name="x_0_3" index="2" value="1.00000"/>
  <variable name="x_0_4" index="3" value="1.00000"/>
  <variable name="x_0_5" index="4" value="1.00000"/>
  <variable name="x_0_6" index="5" value="1.00000"/>
  <variable name="x_0_7" index="6" value="1.00000"/>
  <variable name="x_0_8" index="7" value="1.00000"/>
  <variable name="x_0_10" index="9" value="1.00000"/>
  <variable name="x_0_13" index="12" value="1.00000"/>
  <variable name="x_0_14" index="13" value="1.00000"/>
  <variable name="x_0_15" index="14" value="1.00000"/>
  <variable name="x_0_17" index="16" value="1.00000"/>
  <variable name="x_0_21" index="20" value="1.00000"/>
  <variable name="x_0_22" index="21" value="1.00000"/>
  <variable name="x_0_23" index="22" value="1.00000"/>
  <variable name="x_1_0" index="23" value="1.00000"/>
  <variable name="x_2_0" index="46" value="1.00000"/>
  <variable name="x_3_19" index="87" value="1.00000"/>
  <variable name="x_4_0" index="92" value="1.00000"/>
  <variable name="x_5_2" index="117" value="1.00000"/>
  <variable name="x_6_0" index="138" value="1.00000"/>
  <variable name="x_7_9" index="169" value="1.00000"/>
  <variable name="x_8_12" index="195" value="1.00000"/>
  <variable name="x_9_0" index="207" value="1.00000"/>
  <variable name="x_10_0" index="230" value="1.00000"/>
  <variable name="x_11_0" index="253" value="1.00000"/>
  <variable name="x_12_0" index="276" value="1.00000"/>
  <variable name="x_13_11" index="310" value="1.00000"/>
  <variable name="x_14_18" index="339" value="1.00000"/>
  <variable name="x_15_16" index="360" value="1.00000"/>
  <variable name="x_16_0" index="368" value="1.00000"/>
  <variable name="x_17_0" index="391" value="1.00000"/>
  <variable name="x_18_0" index="414" value="1.00000"/>
  <variable name="x_19_0" index="437" value="1.00000"/>
  <variable name="x_20_0" index="460" value="1.00000"/>
  <variable name="x_21_0" index="483" value="1.00000"/>
  <variable name="x_22_20" index="526" value="1.00000"/>
  <variable name="x_23_0" index="529" value="1.00000"/>
  <variable name="u_1" index="552" value="75.00000"/>
  <variable name="u_2" index="553" value="75.00000"/>
  <variable name="u_3" index="554" value="50.00000"/>
  <variable name="u_4" index="555" value="60.00000"/>
  <variable name="u_5" index="556" value="55.00000"/>
  <variable name="u_6" index="557" value="74.00000"/>
  <variable name="u_7" index="558" value="30.00000"/>
  <variable name="u_8" index="559" value="52.00000"/>
  <variable name="u_9" index="560" value="74.00000"/>
  <variable name="u_10" index="561" value="73.00000"/>
  <variable name="u_11" index="562" value="75.00000"/>
  <variable name="u_12" index="563" value="75.00000"/>
  <variable name="u_13" index="564" value="19.00000"/>
  <variable name="u_14" index="565" value="36.00000"/>
  <variable name="u_15" index="566" value="61.00000"/>
  <variable name="u_16" index="567" value="74.00000"/>
  <variable name="u_17" index="568" value="75.00000"/>
  <variable name="u_18" index="569" value="75.00000"/>
  <variable name="u_19" index="570" value="75.00000"/>
  <variable name="u_20" index="571" value="72.00000"/>
  <variable name="u_21" index="572" value="71.00000"/>
  <variable name="u_22" index="573" value="12.00000"/>
  <variable name="u_23" index="574" value="70.00000"/>
 </variables>
</CPLEXSolution>
